Maximize

x_0_0 + x_0_1 + x_0_2 + x_0_3 + x_0_4 + x_1_0 + x_1_1 + x_1_2 + x_1_3 + x_1_4 + x_2_0 + x_2_1 + x_2_2 + x_2_3 + x_2_4 + x_3_0 + x_3_1 + x_3_2 + x_3_3 + x_3_4 + x_4_0 + x_4_1 + x_4_2 + x_4_3 + x_4_4 + x_5_0 + x_5_1 + x_5_2 + x_5_3 + x_5_4 + x_6_0 + x_6_1 + x_6_2 + x_6_3 + x_6_4 + x_7_0 + x_7_1 + x_7_2 + x_7_3 + x_7_4 + x_8_0 + x_8_1 + x_8_2 + x_8_3 + x_8_4 + x_9_0 + x_9_1 + x_9_2 + x_9_3 + x_9_4 + x_10_0 + x_10_1 + x_10_2 + x_10_3 + x_10_4 + x_11_0 + x_11_1 + x_11_2 + x_11_3 + x_11_4 + x_12_0 + x_12_1 + x_12_2 + x_12_3 + x_12_4 + x_13_0 + x_13_1 + x_13_2 + x_13_3 + x_13_4 + x_14_0 + x_14_1 + x_14_2 + x_14_3 + x_14_4 + x_15_0 + x_15_1 + x_15_2 + x_15_3 + x_15_4 + x_16_0 + x_16_1 + x_16_2 + x_16_3 + x_16_4 + x_17_0 + x_17_1 + x_17_2 + x_17_3 + x_17_4 + x_18_0 + x_18_1 + x_18_2 + x_18_3 + x_18_4 + x_19_0 + x_19_1 + x_19_2 + x_19_3 + x_19_4 + x_20_0 + x_20_1 + x_20_2 + x_20_3 + x_20_4 + x_21_0 + x_21_1 + x_21_2 + x_21_3 + x_21_4 + x_22_0 + x_22_1 + x_22_2 + x_22_3 + x_22_4 + x_23_0 + x_23_1 + x_23_2 + x_23_3 + x_23_4 + x_24_0 + x_24_1 + x_24_2 + x_24_3 + x_24_4 + x_25_0 + x_25_1 + x_25_2 + x_25_3 + x_25_4 + x_26_0 + x_26_1 + x_26_2 + x_26_3 + x_26_4 + x_27_0 + x_27_1 + x_27_2 + x_27_3 + x_27_4 + x_28_0 + x_28_1 + x_28_2 + x_28_3 + x_28_4 + x_29_0 + x_29_1 + x_29_2 + x_29_3 + x_29_4 + x_30_0 + x_30_1 + x_30_2 + x_30_3 + x_30_4 + x_31_0 + x_31_1 + x_31_2 + x_31_3 + x_31_4 + x_32_0 + x_32_1 + x_32_2 + x_32_3 + x_32_4 + x_33_0 + x_33_1 + x_33_2 + x_33_3 + x_33_4 + x_34_0 + x_34_1 + x_34_2 + x_34_3 + x_34_4 + x_35_0 + x_35_1 + x_35_2 + x_35_3 + x_35_4 + x_36_0 + x_36_1 + x_36_2 + x_36_3 + x_36_4 + x_37_0 + x_37_1 + x_37_2 + x_37_3 + x_37_4 + x_38_0 + x_38_1 + x_38_2 + x_38_3 + x_38_4 + x_39_0 + x_39_1 + x_39_2 + x_39_3 + x_39_4


Subject To

a0: 20.0 <= 15.0
a1: 20.0 <= 20.0
a2: 20.0 <= 25.0
a3: 20.0 <= 10.0
a4: 20.0 <= 5.0
a5: 19.0 <= 15.0
a6: 19.0 <= 20.0
a7: 19.0 <= 25.0
a8: 19.0 <= 10.0
a9: 19.0 <= 5.0
a10: 18.0 <= 15.0
a11: 18.0 <= 20.0
a12: 18.0 <= 25.0
a13: 18.0 <= 10.0
a14: 18.0 <= 5.0
a15: 17.0 <= 15.0
a16: 17.0 <= 20.0
a17: 17.0 <= 25.0
a18: 17.0 <= 10.0
a19: 17.0 <= 5.0
a20: 16.0 <= 15.0
a21: 16.0 <= 20.0
a22: 16.0 <= 25.0
a23: 16.0 <= 10.0
a24: 16.0 <= 5.0
a25: 15.0 <= 15.0
a26: 15.0 <= 20.0
a27: 15.0 <= 25.0
a28: 15.0 <= 10.0
a29: 15.0 <= 5.0
a30: 14.0 <= 15.0
a31: 14.0 <= 20.0
a32: 14.0 <= 25.0
a33: 14.0 <= 10.0
a34: 14.0 <= 5.0
a35: 13.0 <= 15.0
a36: 13.0 <= 20.0
a37: 13.0 <= 25.0
a38: 13.0 <= 10.0
a39: 13.0 <= 5.0
a40: 12.0 <= 15.0
a41: 12.0 <= 20.0
a42: 12.0 <= 25.0
a43: 12.0 <= 10.0
a44: 12.0 <= 5.0
a45: 11.0 <= 15.0
a46: 11.0 <= 20.0
a47: 11.0 <= 25.0
a48: 11.0 <= 10.0
a49: 11.0 <= 5.0
a50: 10.0 <= 15.0
a51: 10.0 <= 20.0
a52: 10.0 <= 25.0
a53: 10.0 <= 10.0
a54: 10.0 <= 5.0
a55: 9.0 <= 15.0
a56: 9.0 <= 20.0
a57: 9.0 <= 25.0
a58: 9.0 <= 10.0
a59: 9.0 <= 5.0
a60: 8.0 <= 15.0
a61: 8.0 <= 20.0
a62: 8.0 <= 25.0
a63: 8.0 <= 10.0
a64: 8.0 <= 5.0
a65: 7.0 <= 15.0
a66: 7.0 <= 20.0
a67: 7.0 <= 25.0
a68: 7.0 <= 10.0
a69: 7.0 <= 5.0
a70: 6.0 <= 15.0
a71: 6.0 <= 20.0
a72: 6.0 <= 25.0
a73: 6.0 <= 10.0
a74: 6.0 <= 5.0
a75: 20.0 <= 15.0
a76: 20.0 <= 20.0
a77: 20.0 <= 25.0
a78: 20.0 <= 10.0
a79: 20.0 <= 5.0
a80: 19.0 <= 15.0
a81: 19.0 <= 20.0
a82: 19.0 <= 25.0
a83: 19.0 <= 10.0
a84: 19.0 <= 5.0
a85: 18.0 <= 15.0
a86: 18.0 <= 20.0
a87: 18.0 <= 25.0
a88: 18.0 <= 10.0
a89: 18.0 <= 5.0
a90: 17.0 <= 15.0
a91: 17.0 <= 20.0
a92: 17.0 <= 25.0
a93: 17.0 <= 10.0
a94: 17.0 <= 5.0
a95: 16.0 <= 15.0
a96: 16.0 <= 20.0
a97: 16.0 <= 25.0
a98: 16.0 <= 10.0
a99: 16.0 <= 5.0
a100: 15.0 <= 15.0
a101: 15.0 <= 20.0
a102: 15.0 <= 25.0
a103: 15.0 <= 10.0
a104: 15.0 <= 5.0
a105: 14.0 <= 15.0
a106: 14.0 <= 20.0
a107: 14.0 <= 25.0
a108: 14.0 <= 10.0
a109: 14.0 <= 5.0
a110: 13.0 <= 15.0
a111: 13.0 <= 20.0
a112: 13.0 <= 25.0
a113: 13.0 <= 10.0
a114: 13.0 <= 5.0
a115: 12.0 <= 15.0
a116: 12.0 <= 20.0
a117: 12.0 <= 25.0
a118: 12.0 <= 10.0
a119: 12.0 <= 5.0
a120: 11.0 <= 15.0
a121: 11.0 <= 20.0
a122: 11.0 <= 25.0
a123: 11.0 <= 10.0
a124: 11.0 <= 5.0
a125: 10.0 <= 15.0
a126: 10.0 <= 20.0
a127: 10.0 <= 25.0
a128: 10.0 <= 10.0
a129: 10.0 <= 5.0
a130: 9.0 <= 15.0
a131: 9.0 <= 20.0
a132: 9.0 <= 25.0
a133: 9.0 <= 10.0
a134: 9.0 <= 5.0
a135: 8.0 <= 15.0
a136: 8.0 <= 20.0
a137: 8.0 <= 25.0
a138: 8.0 <= 10.0
a139: 8.0 <= 5.0
a140: 7.0 <= 15.0
a141: 7.0 <= 20.0
a142: 7.0 <= 25.0
a143: 7.0 <= 10.0
a144: 7.0 <= 5.0
a145: 6.0 <= 15.0
a146: 6.0 <= 20.0
a147: 6.0 <= 25.0
a148: 6.0 <= 10.0
a149: 6.0 <= 5.0
a150: 25.0 <= 15.0
a151: 25.0 <= 20.0
a152: 25.0 <= 25.0
a153: 25.0 <= 10.0
a154: 25.0 <= 5.0
a155: 24.0 <= 15.0
a156: 24.0 <= 20.0
a157: 24.0 <= 25.0
a158: 24.0 <= 10.0
a159: 24.0 <= 5.0
a160: 23.0 <= 15.0
a161: 23.0 <= 20.0
a162: 23.0 <= 25.0
a163: 23.0 <= 10.0
a164: 23.0 <= 5.0
a165: 22.0 <= 15.0
a166: 22.0 <= 20.0
a167: 22.0 <= 25.0
a168: 22.0 <= 10.0
a169: 22.0 <= 5.0
a170: 21.0 <= 15.0
a171: 21.0 <= 20.0
a172: 21.0 <= 25.0
a173: 21.0 <= 10.0
a174: 21.0 <= 5.0
a175: 20.0 <= 15.0
a176: 20.0 <= 20.0
a177: 20.0 <= 25.0
a178: 20.0 <= 10.0
a179: 20.0 <= 5.0
a180: 19.0 <= 15.0
a181: 19.0 <= 20.0
a182: 19.0 <= 25.0
a183: 19.0 <= 10.0
a184: 19.0 <= 5.0
a185: 18.0 <= 15.0
a186: 18.0 <= 20.0
a187: 18.0 <= 25.0
a188: 18.0 <= 10.0
a189: 18.0 <= 5.0
a190: 17.0 <= 15.0
a191: 17.0 <= 20.0
a192: 17.0 <= 25.0
a193: 17.0 <= 10.0
a194: 17.0 <= 5.0
a195: 16.0 <= 15.0
a196: 16.0 <= 20.0
a197: 16.0 <= 25.0
a198: 16.0 <= 10.0
a199: 16.0 <= 5.0
b0: x_0_0 + x_0_1 + x_0_2 + x_0_3 + x_0_4 <= 1
b1: x_1_0 + x_1_1 + x_1_2 + x_1_3 + x_1_4 <= 1
b2: x_2_0 + x_2_1 + x_2_2 + x_2_3 + x_2_4 <= 1
b3: x_3_0 + x_3_1 + x_3_2 + x_3_3 + x_3_4 <= 1
b4: x_4_0 + x_4_1 + x_4_2 + x_4_3 + x_4_4 <= 1
b5: x_5_0 + x_5_1 + x_5_2 + x_5_3 + x_5_4 <= 1
b6: x_6_0 + x_6_1 + x_6_2 + x_6_3 + x_6_4 <= 1
b7: x_7_0 + x_7_1 + x_7_2 + x_7_3 + x_7_4 <= 1
b8: x_8_0 + x_8_1 + x_8_2 + x_8_3 + x_8_4 <= 1
b9: x_9_0 + x_9_1 + x_9_2 + x_9_3 + x_9_4 <= 1
b10: x_10_0 + x_10_1 + x_10_2 + x_10_3 + x_10_4 <= 1
b11: x_11_0 + x_11_1 + x_11_2 + x_11_3 + x_11_4 <= 1
b12: x_12_0 + x_12_1 + x_12_2 + x_12_3 + x_12_4 <= 1
b13: x_13_0 + x_13_1 + x_13_2 + x_13_3 + x_13_4 <= 1
b14: x_14_0 + x_14_1 + x_14_2 + x_14_3 + x_14_4 <= 1
b15: x_15_0 + x_15_1 + x_15_2 + x_15_3 + x_15_4 <= 1
b16: x_16_0 + x_16_1 + x_16_2 + x_16_3 + x_16_4 <= 1
b17: x_17_0 + x_17_1 + x_17_2 + x_17_3 + x_17_4 <= 1
b18: x_18_0 + x_18_1 + x_18_2 + x_18_3 + x_18_4 <= 1
b19: x_19_0 + x_19_1 + x_19_2 + x_19_3 + x_19_4 <= 1
b20: x_20_0 + x_20_1 + x_20_2 + x_20_3 + x_20_4 <= 1
b21: x_21_0 + x_21_1 + x_21_2 + x_21_3 + x_21_4 <= 1
b22: x_22_0 + x_22_1 + x_22_2 + x_22_3 + x_22_4 <= 1
b23: x_23_0 + x_23_1 + x_23_2 + x_23_3 + x_23_4 <= 1
b24: x_24_0 + x_24_1 + x_24_2 + x_24_3 + x_24_4 <= 1
b25: x_25_0 + x_25_1 + x_25_2 + x_25_3 + x_25_4 <= 1
b26: x_26_0 + x_26_1 + x_26_2 + x_26_3 + x_26_4 <= 1
b27: x_27_0 + x_27_1 + x_27_2 + x_27_3 + x_27_4 <= 1
b28: x_28_0 + x_28_1 + x_28_2 + x_28_3 + x_28_4 <= 1
b29: x_29_0 + x_29_1 + x_29_2 + x_29_3 + x_29_4 <= 1
b30: x_30_0 + x_30_1 + x_30_2 + x_30_3 + x_30_4 <= 1
b31: x_31_0 + x_31_1 + x_31_2 + x_31_3 + x_31_4 <= 1
b32: x_32_0 + x_32_1 + x_32_2 + x_32_3 + x_32_4 <= 1
b33: x_33_0 + x_33_1 + x_33_2 + x_33_3 + x_33_4 <= 1
b34: x_34_0 + x_34_1 + x_34_2 + x_34_3 + x_34_4 <= 1
b35: x_35_0 + x_35_1 + x_35_2 + x_35_3 + x_35_4 <= 1
b36: x_36_0 + x_36_1 + x_36_2 + x_36_3 + x_36_4 <= 1
b37: x_37_0 + x_37_1 + x_37_2 + x_37_3 + x_37_4 <= 1
b38: x_38_0 + x_38_1 + x_38_2 + x_38_3 + x_38_4 <= 1
b39: x_39_0 + x_39_1 + x_39_2 + x_39_3 + x_39_4 <= 1
c0: 20.0 x_0_0 + 19.0 x_1_0 + 18.0 x_2_0 + 17.0 x_3_0 + 16.0 x_4_0 + 15.0 x_5_0 + 14.0 x_6_0 + 13.0 x_7_0 + 12.0 x_8_0 + 11.0 x_9_0 + 10.0 x_10_0 + 9.0 x_11_0 + 8.0 x_12_0 + 7.0 x_13_0 + 6.0 x_14_0 + 20.0 x_15_0 + 19.0 x_16_0 + 18.0 x_17_0 + 17.0 x_18_0 + 16.0 x_19_0 + 15.0 x_20_0 + 14.0 x_21_0 + 13.0 x_22_0 + 12.0 x_23_0 + 11.0 x_24_0 + 10.0 x_25_0 + 9.0 x_26_0 + 8.0 x_27_0 + 7.0 x_28_0 + 6.0 x_29_0 + 25.0 x_30_0 + 24.0 x_31_0 + 23.0 x_32_0 + 22.0 x_33_0 + 21.0 x_34_0 + 20.0 x_35_0 + 19.0 x_36_0 + 18.0 x_37_0 + 17.0 x_38_0 + 16.0 x_39_0 <= 80.0
c1: 20.0 x_0_1 + 19.0 x_1_1 + 18.0 x_2_1 + 17.0 x_3_1 + 16.0 x_4_1 + 15.0 x_5_1 + 14.0 x_6_1 + 13.0 x_7_1 + 12.0 x_8_1 + 11.0 x_9_1 + 10.0 x_10_1 + 9.0 x_11_1 + 8.0 x_12_1 + 7.0 x_13_1 + 6.0 x_14_1 + 20.0 x_15_1 + 19.0 x_16_1 + 18.0 x_17_1 + 17.0 x_18_1 + 16.0 x_19_1 + 15.0 x_20_1 + 14.0 x_21_1 + 13.0 x_22_1 + 12.0 x_23_1 + 11.0 x_24_1 + 10.0 x_25_1 + 9.0 x_26_1 + 8.0 x_27_1 + 7.0 x_28_1 + 6.0 x_29_1 + 25.0 x_30_1 + 24.0 x_31_1 + 23.0 x_32_1 + 22.0 x_33_1 + 21.0 x_34_1 + 20.0 x_35_1 + 19.0 x_36_1 + 18.0 x_37_1 + 17.0 x_38_1 + 16.0 x_39_1 <= 60.0
c2: 20.0 x_0_2 + 19.0 x_1_2 + 18.0 x_2_2 + 17.0 x_3_2 + 16.0 x_4_2 + 15.0 x_5_2 + 14.0 x_6_2 + 13.0 x_7_2 + 12.0 x_8_2 + 11.0 x_9_2 + 10.0 x_10_2 + 9.0 x_11_2 + 8.0 x_12_2 + 7.0 x_13_2 + 6.0 x_14_2 + 20.0 x_15_2 + 19.0 x_16_2 + 18.0 x_17_2 + 17.0 x_18_2 + 16.0 x_19_2 + 15.0 x_20_2 + 14.0 x_21_2 + 13.0 x_22_2 + 12.0 x_23_2 + 11.0 x_24_2 + 10.0 x_25_2 + 9.0 x_26_2 + 8.0 x_27_2 + 7.0 x_28_2 + 6.0 x_29_2 + 25.0 x_30_2 + 24.0 x_31_2 + 23.0 x_32_2 + 22.0 x_33_2 + 21.0 x_34_2 + 20.0 x_35_2 + 19.0 x_36_2 + 18.0 x_37_2 + 17.0 x_38_2 + 16.0 x_39_2 <= 50.0
c3: 20.0 x_0_3 + 19.0 x_1_3 + 18.0 x_2_3 + 17.0 x_3_3 + 16.0 x_4_3 + 15.0 x_5_3 + 14.0 x_6_3 + 13.0 x_7_3 + 12.0 x_8_3 + 11.0 x_9_3 + 10.0 x_10_3 + 9.0 x_11_3 + 8.0 x_12_3 + 7.0 x_13_3 + 6.0 x_14_3 + 20.0 x_15_3 + 19.0 x_16_3 + 18.0 x_17_3 + 17.0 x_18_3 + 16.0 x_19_3 + 15.0 x_20_3 + 14.0 x_21_3 + 13.0 x_22_3 + 12.0 x_23_3 + 11.0 x_24_3 + 10.0 x_25_3 + 9.0 x_26_3 + 8.0 x_27_3 + 7.0 x_28_3 + 6.0 x_29_3 + 25.0 x_30_3 + 24.0 x_31_3 + 23.0 x_32_3 + 22.0 x_33_3 + 21.0 x_34_3 + 20.0 x_35_3 + 19.0 x_36_3 + 18.0 x_37_3 + 17.0 x_38_3 + 16.0 x_39_3 <= 70.0
c4: 20.0 x_0_4 + 19.0 x_1_4 + 18.0 x_2_4 + 17.0 x_3_4 + 16.0 x_4_4 + 15.0 x_5_4 + 14.0 x_6_4 + 13.0 x_7_4 + 12.0 x_8_4 + 11.0 x_9_4 + 10.0 x_10_4 + 9.0 x_11_4 + 8.0 x_12_4 + 7.0 x_13_4 + 6.0 x_14_4 + 20.0 x_15_4 + 19.0 x_16_4 + 18.0 x_17_4 + 17.0 x_18_4 + 16.0 x_19_4 + 15.0 x_20_4 + 14.0 x_21_4 + 13.0 x_22_4 + 12.0 x_23_4 + 11.0 x_24_4 + 10.0 x_25_4 + 9.0 x_26_4 + 8.0 x_27_4 + 7.0 x_28_4 + 6.0 x_29_4 + 25.0 x_30_4 + 24.0 x_31_4 + 23.0 x_32_4 + 22.0 x_33_4 + 21.0 x_34_4 + 20.0 x_35_4 + 19.0 x_36_4 + 18.0 x_37_4 + 17.0 x_38_4 + 16.0 x_39_4 <= 40.0




Binary

x_0_0 x_0_1 x_0_2 x_0_3 x_0_4 x_1_0 x_1_1 x_1_2 x_1_3 x_1_4 x_2_0 x_2_1 x_2_2 x_2_3 x_2_4 x_3_0 x_3_1 x_3_2 x_3_3 x_3_4 x_4_0 x_4_1 x_4_2 x_4_3 x_4_4 x_5_0 x_5_1 x_5_2 x_5_3 x_5_4 x_6_0 x_6_1 x_6_2 x_6_3 x_6_4 x_7_0 x_7_1 x_7_2 x_7_3 x_7_4 x_8_0 x_8_1 x_8_2 x_8_3 x_8_4 x_9_0 x_9_1 x_9_2 x_9_3 x_9_4 x_10_0 x_10_1 x_10_2 x_10_3 x_10_4 x_11_0 x_11_1 x_11_2 x_11_3 x_11_4 x_12_0 x_12_1 x_12_2 x_12_3 x_12_4 x_13_0 x_13_1 x_13_2 x_13_3 x_13_4 x_14_0 x_14_1 x_14_2 x_14_3 x_14_4 x_15_0 x_15_1 x_15_2 x_15_3 x_15_4 x_16_0 x_16_1 x_16_2 x_16_3 x_16_4 x_17_0 x_17_1 x_17_2 x_17_3 x_17_4 x_18_0 x_18_1 x_18_2 x_18_3 x_18_4 x_19_0 x_19_1 x_19_2 x_19_3 x_19_4 x_20_0 x_20_1 x_20_2 x_20_3 x_20_4 x_21_0 x_21_1 x_21_2 x_21_3 x_21_4 x_22_0 x_22_1 x_22_2 x_22_3 x_22_4 x_23_0 x_23_1 x_23_2 x_23_3 x_23_4 x_24_0 x_24_1 x_24_2 x_24_3 x_24_4 x_25_0 x_25_1 x_25_2 x_25_3 x_25_4 x_26_0 x_26_1 x_26_2 x_26_3 x_26_4 x_27_0 x_27_1 x_27_2 x_27_3 x_27_4 x_28_0 x_28_1 x_28_2 x_28_3 x_28_4 x_29_0 x_29_1 x_29_2 x_29_3 x_29_4 x_30_0 x_30_1 x_30_2 x_30_3 x_30_4 x_31_0 x_31_1 x_31_2 x_31_3 x_31_4 x_32_0 x_32_1 x_32_2 x_32_3 x_32_4 x_33_0 x_33_1 x_33_2 x_33_3 x_33_4 x_34_0 x_34_1 x_34_2 x_34_3 x_34_4 x_35_0 x_35_1 x_35_2 x_35_3 x_35_4 x_36_0 x_36_1 x_36_2 x_36_3 x_36_4 x_37_0 x_37_1 x_37_2 x_37_3 x_37_4 x_38_0 x_38_1 x_38_2 x_38_3 x_38_4 x_39_0 x_39_1 x_39_2 x_39_3 x_39_4

 


End
